CPLEX 12.4.0.0: timing=1
varsel=4
mipdisplay=4
timelimit=7200
MIP Presolve eliminated 79360 rows and 528 columns.
MIP Presolve modified 4960 coefficients.
Reduced MIP has 14880 rows, 496 columns, and 44640 nonzeros.
Reduced MIP has 496 binaries, 0 generals, 0 SOSs, and 0 indicators.
Probing time =    0.00 sec.
Found feasible solution after 5.82 sec.  Objective = 0.0000
Probing time =    0.01 sec.
MIP emphasis: balance optimality and feasibility.
MIP search method: dynamic search.
Parallel mode: deterministic, using up to 4 threads.
Root relaxation solution time =    0.98 sec.

        Nodes                                         Cuts/
   Node  Left     Objective  IInf  Best Integer    Best Bound    ItCnt     Gap

*     0+    0                            0.0000                   3657     --- 
      0     0        0.3486    52        0.0000        0.3486     3657     --- 
*     0+    0                            0.3364        0.3486     3657    3.60%
      0     0        0.3465   122        0.3364      Cuts: 47     3804    2.99%
*     0+    0                            0.3453        0.3465     3804    0.35%
*     0     0      integral     0        0.3455      Cuts: 41     3892    0.00%
      0     0        cutoff              0.3455        0.3455     3892    0.00%
Elapsed real time =   8.35 sec. (tree size =  0.00 MB)

Implied bound cuts applied:  5
Zero-half cuts applied:  40
Gomory fractional cuts applied:  3

Root node processing (before b&c):
  Real time             =    2.54
Parallel b&c, 4 threads:
  Real time             =    0.00
  Sync time (average)   =    0.00
  Wait time (average)   =    0.00
                          -------
Total (root+branch&cut) =    2.54 sec.

Times (seconds):
Input =  0.117982
Solve =  4.6273
Output = 0.097985
CPLEX 12.4.0.0: optimal integer solution; objective 0.3455371796
3892 MIP simplex iterations
0 branch-and-bound nodes
_total_solve_user_time = 4.76427

t [*,*]
:    1   2   3   4   5   6   7   8   9  10  11  12  13  14  15  16  17  18  19 :=
1    0   0   0   0   0   0   1   1   1   1   1   1   1   1   1   1   1   1   0
2    0   0   0   0   0   0   1   1   1   1   1   1   1   1   1   1   1   1   0
3    0   0   0   0   0   0   1   1   1   1   1   1   1   1   1   1   1   1   0
4    0   0   0   0   0   0   1   1   1   1   1   1   1   1   1   1   1   1   0
5    0   0   0   0   0   0   1   1   1   1   1   1   1   1   1   1   1   1   0
6    0   0   0   0   0   0   1   1   1   1   1   1   1   1   1   1   1   1   0
7    1   1   1   1   1   1   0   1   0   0   1   1   1   1   1   1   1   1   1
8    1   1   1   1   1   1   1   0   1   1   1   1   1   1   1   0   0   0   1
9    1   1   1   1   1   1   0   1   0   0   1   1   1   1   1   1   1   1   1
10   1   1   1   1   1   1   0   1   0   0   1   1   1   1   1   1   1   1   1
11   1   1   1   1   1   1   1   1   1   1   0   0   0   0   0   1   1   1   1
12   1   1   1   1   1   1   1   1   1   1   0   0   0   0   0   1   1   1   1
13   1   1   1   1   1   1   1   1   1   1   0   0   0   0   0   1   1   1   1
14   1   1   1   1   1   1   1   1   1   1   0   0   0   0   0   1   1   1   1
15   1   1   1   1   1   1   1   1   1   1   0   0   0   0   0   1   1   1   1
16   1   1   1   1   1   1   1   0   1   1   1   1   1   1   1   0   0   0   1
17   1   1   1   1   1   1   1   0   1   1   1   1   1   1   1   0   0   0   1
18   1   1   1   1   1   1   1   0   1   1   1   1   1   1   1   0   0   0   1
19   0   0   0   0   0   0   1   1   1   1   1   1   1   1   1   1   1   1   0
20   0   0   0   0   0   0   1   1   1   1   1   1   1   1   1   1   1   1   0
21   0   0   0   0   0   0   1   1   1   1   1   1   1   1   1   1   1   1   0
22   0   0   0   0   0   0   1   1   1   1   1   1   1   1   1   1   1   1   0
23   0   0   0   0   0   0   1   1   1   1   1   1   1   1   1   1   1   1   0
24   0   0   0   0   0   0   1   1   1   1   1   1   1   1   1   1   1   1   0
25   1   1   1   1   1   1   0   1   0   0   1   1   1   1   1   1   1   1   1
26   1   1   1   1   1   1   0   1   0   0   1   1   1   1   1   1   1   1   1
27   1   1   1   1   1   1   1   0   1   1   1   1   1   1   1   0   0   0   1
28   1   1   1   1   1   1   1   1   1   1   0   0   0   0   0   1   1   1   1
29   1   1   1   1   1   1   1   0   1   1   1   1   1   1   1   0   0   0   1
30   1   1   1   1   1   1   1   1   1   1   0   0   0   0   0   1   1   1   1
31   1   1   1   1   1   1   1   1   1   1   0   0   0   0   0   1   1   1   1
32   1   1   1   1   1   1   1   1   1   1   0   0   0   0   0   1   1   1   1

:   20  21  22  23  24  25  26  27  28  29  30  31  32    :=
1    0   0   0   0   0   1   1   1   1   1   1   1   1
2    0   0   0   0   0   1   1   1   1   1   1   1   1
3    0   0   0   0   0   1   1   1   1   1   1   1   1
4    0   0   0   0   0   1   1   1   1   1   1   1   1
5    0   0   0   0   0   1   1   1   1   1   1   1   1
6    0   0   0   0   0   1   1   1   1   1   1   1   1
7    1   1   1   1   1   0   0   1   1   1   1   1   1
8    1   1   1   1   1   1   1   0   1   0   1   1   1
9    1   1   1   1   1   0   0   1   1   1   1   1   1
10   1   1   1   1   1   0   0   1   1   1   1   1   1
11   1   1   1   1   1   1   1   1   0   1   0   0   0
12   1   1   1   1   1   1   1   1   0   1   0   0   0
13   1   1   1   1   1   1   1   1   0   1   0   0   0
14   1   1   1   1   1   1   1   1   0   1   0   0   0
15   1   1   1   1   1   1   1   1   0   1   0   0   0
16   1   1   1   1   1   1   1   0   1   0   1   1   1
17   1   1   1   1   1   1   1   0   1   0   1   1   1
18   1   1   1   1   1   1   1   0   1   0   1   1   1
19   0   0   0   0   0   1   1   1   1   1   1   1   1
20   0   0   0   0   0   1   1   1   1   1   1   1   1
21   0   0   0   0   0   1   1   1   1   1   1   1   1
22   0   0   0   0   0   1   1   1   1   1   1   1   1
23   0   0   0   0   0   1   1   1   1   1   1   1   1
24   0   0   0   0   0   1   1   1   1   1   1   1   1
25   1   1   1   1   1   0   0   1   1   1   1   1   1
26   1   1   1   1   1   0   0   1   1   1   1   1   1
27   1   1   1   1   1   1   1   0   1   0   1   1   1
28   1   1   1   1   1   1   1   1   0   1   0   0   0
29   1   1   1   1   1   1   1   0   1   0   1   1   1
30   1   1   1   1   1   1   1   1   0   1   0   0   0
31   1   1   1   1   1   1   1   1   0   1   0   0   0
32   1   1   1   1   1   1   1   1   0   1   0   0   0
;

